<number of tasks>
50

<cycle time>
1000

<order strength>
0.595


<task times>
1 571
2 296
3 175
4 549
5 59
6 196
7 575
8 125
9 131
10 122
11 410
12 252
13 145
14 257
15 461
16 177
17 243
18 28
19 212
20 195
21 216
22 199
23 43
24 106
25 547
26 188
27 35
28 59
29 272
30 34
31 190
32 123
33 80
34 484
35 165
36 322
37 189
38 477
39 163
40 622
41 165
42 85
43 259
44 374
45 431
46 32
47 168
48 76
49 114
50 489

<precedence relations>
1,4
2,6
3,4
3,5
4,7
4,8
4,9
5,8
5,9
5,24
6,7
6,9
6,10
7,11
7,12
7,13
8,14
8,29
8,35
9,12
9,15
9,30
10,11
10,12
10,13
11,14
11,15
11,16
11,17
11,18
11,19
12,18
12,34
13,17
13,20
13,42
13,43
14,21
15,21
15,22
16,21
16,22
16,23
16,24
18,32
18,33
19,23
19,48
20,33
20,37
20,40
21,25
21,26
21,28
22,25
22,27
22,29
22,43
23,37
23,45
24,25
24,28
24,30
25,31
25,33
25,34
26,32
27,35
27,38
28,32
28,33
28,38
28,39
29,31
29,33
29,37
29,38
29,39
29,46
30,32
31,42
32,36
32,37
32,41
33,44
33,49
34,38
35,39
35,40
36,43
37,50
40,45
41,45
42,44
43,45
43,46
43,49
43,50
44,47
44,48
44,50

<end>
